/*********************************************
 * OPL 12.6.0.0 Data
 * Author: Adrian Rodriguez Bazaga, Pau Rodriguez Esmerats
 * Creation Date: 10/12/2017 at 07:22:27
 *********************************************/

maxConsec=8;
maxPresence=16;
maxHours=10;
minHours=2;
hours=24;
demand= [6 8 8 8 6 7 7 8 4 8 7 5 5 4 2 0 1 0 2 0 2 0 1 0  ];
nNurses=12;
